<?xml version = "1.0" encoding="UTF-8" standalone="yes"?>
<CPLEXSolution version="1.2">
 <header
   problemName="IloCplex"
   solutionName="incumbent"
   solutionIndex="-1"
   objectiveValue="312"
   solutionTypeValue="3"
   solutionTypeString="primal"
   solutionStatusValue="101"
   solutionStatusString="integer optimal solution"
   solutionMethodString="mip"
   primalFeasible="1"
   dualFeasible="1"
   MIPNodes="0"
   MIPIterations="0"
   writeLevel="1"/>
 <quality
   epInt="1.0000000000000001e-05"
   epRHS="9.9999999999999995e-07"
   maxIntInfeas="0"
   maxPrimalInfeas="0"
   maxX="1"
   maxSlack="14.464058503003745"/>
 <linearConstraints>
  <constraint index="0" slack="4.0266666666666673"/>
  <constraint index="1" slack="3.0166666666666657"/>
  <constraint index="2" slack="4.0166666666666666"/>
  <constraint index="3" slack="4.0166666666666666"/>
  <constraint index="4" slack="3.0350000000000001"/>
  <constraint index="5" slack="5.0133333333333336"/>
  <constraint index="6" slack="5.0133333333333336"/>
  <constraint index="7" slack="4.8334804505326598"/>
  <constraint index="8" slack="2.9555868132253078"/>
  <constraint index="9" slack="4.9979934544646323"/>
  <constraint index="10" slack="7.0066666666666677"/>
  <constraint index="11" slack="4.0066666666666677"/>
  <constraint index="12" slack="5.0066666666666677"/>
  <constraint index="13" slack="3.0216666666666665"/>
  <constraint index="14" slack="4.0166666666666666"/>
  <constraint index="15" slack="4.0449999999999999"/>
  <constraint index="16" slack="2.0466666666666669"/>
  <constraint index="17" slack="5.0466666666666669"/>
  <constraint index="18" slack="4.0466666666666669"/>
  <constraint index="19" slack="5.0449999999999999"/>
  <constraint index="20" slack="5.0266666666666673"/>
  <constraint index="21" slack="4.0350000000000001"/>
  <constraint index="22" slack="3.0350000000000001"/>
  <constraint index="23" slack="4.0516666666666667"/>
  <constraint index="24" slack="4.0516666666666659"/>
  <constraint index="25" slack="2.0516666666666659"/>
  <constraint index="26" slack="4.0516666666666659"/>
  <constraint index="27" slack="5.0216666666666665"/>
  <constraint index="28" slack="4.0216666666666665"/>
  <constraint index="29" slack="14.464058503003745"/>
 </linearConstraints>
 <variables>
  <variable name="x(0)" index="0" value="1"/>
  <variable name="x(1)" index="1" value="1"/>
  <variable name="x(2)" index="2" value="1"/>
  <variable name="x(3)" index="3" value="1"/>
  <variable name="x(4)" index="4" value="1"/>
  <variable name="x(5)" index="5" value="1"/>
  <variable name="x(6)" index="6" value="1"/>
  <variable name="x(7)" index="7" value="1"/>
  <variable name="x(8)" index="8" value="1"/>
  <variable name="x(9)" index="9" value="1"/>
  <variable name="x(10)" index="10" value="1"/>
  <variable name="x(11)" index="11" value="1"/>
  <variable name="x(12)" index="12" value="1"/>
  <variable name="x(13)" index="13" value="1"/>
  <variable name="x(14)" index="14" value="1"/>
  <variable name="x(15)" index="15" value="1"/>
  <variable name="x(16)" index="16" value="1"/>
  <variable name="x(17)" index="17" value="1"/>
  <variable name="x(18)" index="18" value="1"/>
  <variable name="x(19)" index="19" value="1"/>
  <variable name="x(20)" index="20" value="1"/>
  <variable name="x(21)" index="21" value="1"/>
  <variable name="x(22)" index="22" value="1"/>
  <variable name="x(23)" index="23" value="1"/>
  <variable name="x(24)" index="24" value="1"/>
  <variable name="x(25)" index="25" value="1"/>
  <variable name="x(26)" index="26" value="1"/>
  <variable name="x(27)" index="27" value="1"/>
  <variable name="x(28)" index="28" value="1"/>
  <variable name="x(29)" index="29" value="1"/>
  <variable name="x(30)" index="30" value="1"/>
  <variable name="x(31)" index="31" value="1"/>
  <variable name="x(32)" index="32" value="1"/>
  <variable name="x(33)" index="33" value="1"/>
  <variable name="x(34)" index="34" value="1"/>
  <variable name="x(35)" index="35" value="1"/>
  <variable name="x(36)" index="36" value="1"/>
  <variable name="x(37)" index="37" value="1"/>
  <variable name="x(38)" index="38" value="1"/>
  <variable name="x(39)" index="39" value="1"/>
  <variable name="x(40)" index="40" value="1"/>
  <variable name="x(41)" index="41" value="1"/>
  <variable name="x(42)" index="42" value="0"/>
  <variable name="x(43)" index="43" value="1"/>
  <variable name="x(44)" index="44" value="1"/>
  <variable name="x(45)" index="45" value="1"/>
  <variable name="x(46)" index="46" value="1"/>
  <variable name="x(47)" index="47" value="1"/>
  <variable name="x(48)" index="48" value="1"/>
  <variable name="x(49)" index="49" value="1"/>
  <variable name="x(50)" index="50" value="1"/>
  <variable name="x(51)" index="51" value="1"/>
  <variable name="x(52)" index="52" value="1"/>
  <variable name="x(53)" index="53" value="1"/>
  <variable name="x(54)" index="54" value="1"/>
  <variable name="x(55)" index="55" value="1"/>
  <variable name="x(56)" index="56" value="1"/>
  <variable name="x(57)" index="57" value="1"/>
  <variable name="x(58)" index="58" value="1"/>
  <variable name="x(59)" index="59" value="1"/>
  <variable name="x(60)" index="60" value="1"/>
  <variable name="x(61)" index="61" value="1"/>
  <variable name="x(62)" index="62" value="1"/>
  <variable name="x(63)" index="63" value="1"/>
  <variable name="x(64)" index="64" value="1"/>
  <variable name="x(65)" index="65" value="1"/>
  <variable name="x(66)" index="66" value="1"/>
  <variable name="x(67)" index="67" value="0"/>
  <variable name="x(68)" index="68" value="1"/>
  <variable name="x(69)" index="69" value="1"/>
  <variable name="x(70)" index="70" value="1"/>
  <variable name="x(71)" index="71" value="1"/>
  <variable name="x(72)" index="72" value="1"/>
  <variable name="x(73)" index="73" value="1"/>
  <variable name="x(74)" index="74" value="1"/>
  <variable name="x(75)" index="75" value="1"/>
  <variable name="x(76)" index="76" value="1"/>
  <variable name="x(77)" index="77" value="1"/>
  <variable name="x(78)" index="78" value="1"/>
  <variable name="x(79)" index="79" value="1"/>
  <variable name="x(80)" index="80" value="1"/>
  <variable name="x(81)" index="81" value="1"/>
  <variable name="x(82)" index="82" value="1"/>
  <variable name="x(83)" index="83" value="1"/>
  <variable name="x(84)" index="84" value="1"/>
  <variable name="x(85)" index="85" value="1"/>
  <variable name="x(86)" index="86" value="1"/>
  <variable name="x(87)" index="87" value="1"/>
  <variable name="x(88)" index="88" value="1"/>
  <variable name="x(89)" index="89" value="1"/>
  <variable name="x(90)" index="90" value="1"/>
  <variable name="x(91)" index="91" value="1"/>
  <variable name="x(92)" index="92" value="1"/>
  <variable name="x(93)" index="93" value="0"/>
  <variable name="x(94)" index="94" value="1"/>
  <variable name="x(95)" index="95" value="1"/>
  <variable name="x(96)" index="96" value="1"/>
  <variable name="x(97)" index="97" value="1"/>
  <variable name="x(98)" index="98" value="1"/>
  <variable name="x(99)" index="99" value="1"/>
  <variable name="x(100)" index="100" value="1"/>
  <variable name="x(101)" index="101" value="1"/>
  <variable name="x(102)" index="102" value="1"/>
  <variable name="x(103)" index="103" value="1"/>
  <variable name="x(104)" index="104" value="1"/>
  <variable name="x(105)" index="105" value="1"/>
  <variable name="x(106)" index="106" value="0"/>
  <variable name="x(107)" index="107" value="0"/>
  <variable name="x(108)" index="108" value="1"/>
 </variables>
</CPLEXSolution>
